p cnf 25 58
a 17 5 0
e 1 2 3 4 6 7 8 9 10 11 12 13 14 15 16 18 19 20 21 22 23 24 25 0
2 -1 0
2 -1 0
1 -2 0
-3 -4 -5 0
3 4 -5 0
-3 4 5 0
3 -4 5 0
6 -2 0
6 5 0
2 -5 -6 0
9 -8 0
9 -7 0
8 7 -9 0
-9 10 0
9 10 0
11 -7 0
11 -10 0
7 10 -11 0
-13 11 0
-13 12 0
-11 -12 13 0
-14 3 0
-14 4 0
-3 -4 14 0
-15 13 0
-15 -14 0
-13 14 15 0
-16 4 0
-16 1 0
-4 -1 16 0
-17 -15 0
-17 -16 0
15 16 17 0
-19 18 0
-19 -9 0
-18 9 19 0
21 19 0
21 20 0
-19 -20 -21 0
22 -17 0
22 21 0
17 -21 -22 0
-23 -6 0
-23 -22 0
6 22 23 0
1 9 -24 0
-1 -9 -24 0
1 -9 24 0
-1 9 24 0
25 23 0
25 24 0
-23 -24 -25 0
16 -12 -14 -20 -19 24 -4 0
8 4 -20 0
-9 25 8 -18 0
16 1 -18 4 0
24 3 20 0
25 0
